
  12    4
  10   10   10   10

   0   0   0   0   0   6 2 3 4 5 7 8 
  10  10  10  10  10   3 11 10 9 
   3  10  10  10  10   2 10 6 
  10  10  10  10  10   2 10 9 
   7  10  10  10  10   2 10 9 
   8  10  10  10  10   1 9 
   3  10  10  10  10   1 9 
   9  10  10  10  10   1 9 
   8  10  10  10  10   1 12
   2  10  10  10  10   1 12
   7  10  10  10  10   1 12
   0   0   0   0   0   0 
